min: +y_1+y_2+y_3+y_4+y_5;
+x_1_1+x_1_2+x_1_3+x_1_4+x_1_5=1;
+x_2_1+x_2_2+x_2_3+x_2_4+x_2_5=1;
+x_3_1+x_3_2+x_3_3+x_3_4+x_3_5=1;
+x_4_1+x_4_2+x_4_3+x_4_4+x_4_5=1;
+x_5_1+x_5_2+x_5_3+x_5_4+x_5_5=1;
x_1_1<=y_1;
x_1_2<=y_2;
x_1_3<=y_3;
x_1_4<=y_4;
x_1_5<=y_5;
x_2_1<=y_1;
x_2_2<=y_2;
x_2_3<=y_3;
x_2_4<=y_4;
x_2_5<=y_5;
x_3_1<=y_1;
x_3_2<=y_2;
x_3_3<=y_3;
x_3_4<=y_4;
x_3_5<=y_5;
x_4_1<=y_1;
x_4_2<=y_2;
x_4_3<=y_3;
x_4_4<=y_4;
x_4_5<=y_5;
x_5_1<=y_1;
x_5_2<=y_2;
x_5_3<=y_3;
x_5_4<=y_4;
x_5_5<=y_5;
x_1_1+x_4_1<=1;
x_1_2+x_4_2<=1;
x_1_3+x_4_3<=1;
x_1_4+x_4_4<=1;
x_1_5+x_4_5<=1;
x_1_1+x_5_1<=1;
x_1_2+x_5_2<=1;
x_1_3+x_5_3<=1;
x_1_4+x_5_4<=1;
x_1_5+x_5_5<=1;
x_2_1+x_4_1<=1;
x_2_2+x_4_2<=1;
x_2_3+x_4_3<=1;
x_2_4+x_4_4<=1;
x_2_5+x_4_5<=1;
x_2_1+x_5_1<=1;
x_2_2+x_5_2<=1;
x_2_3+x_5_3<=1;
x_2_4+x_5_4<=1;
x_2_5+x_5_5<=1;
x_3_1+x_4_1<=1;
x_3_2+x_4_2<=1;
x_3_3+x_4_3<=1;
x_3_4+x_4_4<=1;
x_3_5+x_4_5<=1;
x_3_1+x_5_1<=1;
x_3_2+x_5_2<=1;
x_3_3+x_5_3<=1;
x_3_4+x_5_4<=1;
x_3_5+x_5_5<=1;
y_2<=y_1;
y_3<=y_2;
y_4<=y_3;
y_5<=y_4;
bin x_1_1, x_1_2, x_1_3, x_1_4, x_1_5, x_2_1, x_2_2, x_2_3, x_2_4, x_2_5, x_3_1, x_3_2, x_3_3, x_3_4, x_3_5, x_4_1, x_4_2, x_4_3, x_4_4, x_4_5, x_5_1, x_5_2, x_5_3, x_5_4, x_5_5, y_1,y_2,y_3,y_4,y_5;